0 648468 
1 647848 
2 646476 
3 646454 
4 645172 
5 644340 
6 642762 
7 641540 
8 641196 
9 640892 
10 639580 
11 639288 
12 637550 
13 635166 
14 633462 
15 631918 
16 630732 
17 629406 
18 628240 
19 627100 
20 626718 
21 625912 
22 625520 
23 622778 
24 621316 
25 621094 
26 620044 
27 618242 
28 618176 
29 617186 
30 617064 
31 616062 
32 611180 
33 609520 
34 609116 
35 608580 
36 606836 
37 606056 
38 605764 
39 602398 
40 602196 
41 600954 
42 598152 
43 596918 
44 596588 
45 592192 
46 590688 
47 588982 
48 588274 
49 585616 
50 585574 
51 579634 
52 577246 
53 572890 
54 572334 
55 570266 
56 568600 
57 568188 
58 568016 
59 567964 
60 567692 
61 564768 
62 562048 
63 561674 
64 560376 
65 558884 
66 558162 
67 556592 
68 556346 
69 553840 
70 551642 
71 550870 
72 550238 
73 546700 
74 543352 
75 539816 
76 535474 
77 529376 
78 527928 
79 519698 
80 511292 
81 511292 

